sat
(:max-memory                   18.52
 :memory                       18.42
 :nlsat-arith-var              4
 :nlsat-atoms                  8
 :nlsat-bool-var               1
 :nlsat-clauses                8
 :nlsat-irrational-assignments 1
 :nlsat-propagations           8
 :nlsat-stages                 5
 :num-allocs                   57257
 :rlimit-count                 1015
 :time                         0.00)
